\ Model hhp_dispatch
\ LP format - for model browsing. Use MPS format to capture full model detail.
Minimize
  4.285714285714286 Q_hp[0] + 4.285714285714286 Q_hp[1]
   + 4.285714285714286 Q_hp[2] + 4.285714285714286 Q_hp[3]
   + 1.428571428571428 Q_hp[4] + 1.428571428571428 Q_hp[5]
   + 1.428571428571428 Q_hp[6] + 1.428571428571428 Q_hp[7]
   + 1.428571428571428 Q_hp[8] + 1.428571428571428 Q_hp[9]
   + 1.428571428571428 Q_hp[10] + 4.285714285714286 Q_hp[11]
   + 4.285714285714286 Q_hp[12] + 4.285714285714286 Q_hp[13]
   + 4.285714285714286 Q_hp[14] + 4.285714285714286 Q_hp[15]
   + 4.285714285714286 Q_hp[16] + 4.285714285714286 Q_hp[17]
   + 4.285714285714286 Q_hp[18] + 4.285714285714286 Q_hp[19]
   + 4.285714285714286 Q_hp[20] + 4.285714285714286 Q_hp[21]
   + 4.285714285714286 Q_hp[22] + 4.285714285714286 Q_hp[23]
   + 4.285714285714286 Q_hp[24] + 4.285714285714286 Q_hp[25]
   + 1.428571428571428 Q_hp[26] + 1.428571428571428 Q_hp[27]
   + 1.428571428571428 Q_hp[28] + 1.428571428571428 Q_hp[29]
   + 1.428571428571428 Q_hp[30] + 1.428571428571428 Q_hp[31]
   + 1.428571428571428 Q_hp[32] + 1.428571428571428 Q_hp[33]
   + 8.571428571428571 Q_hp[34] + 8.571428571428571 Q_hp[35]
   + 8.571428571428571 Q_hp[36] + 8.571428571428571 Q_hp[37]
   + 8.571428571428571 Q_hp[38] + 8.571428571428571 Q_hp[39]
   + 8.571428571428571 Q_hp[40] + 4.285714285714286 Q_hp[41]
   + 1.428571428571428 Q_hp[42] + 1.428571428571428 Q_hp[43]
   + 1.428571428571428 Q_hp[44] + 1.428571428571428 Q_hp[45]
   + 1.428571428571428 Q_hp[46] + 1.428571428571428 Q_hp[47]
   + 1.428571428571428 Q_hp[48] + 5.555555555555555 Q_bo[0]
   + 5.555555555555555 Q_bo[1] + 5.555555555555555 Q_bo[2]
   + 5.555555555555555 Q_bo[3] + 5.555555555555555 Q_bo[4]
   + 5.555555555555555 Q_bo[5] + 5.555555555555555 Q_bo[6]
   + 5.555555555555555 Q_bo[7] + 5.555555555555555 Q_bo[8]
   + 5.555555555555555 Q_bo[9] + 5.555555555555555 Q_bo[10]
   + 5.555555555555555 Q_bo[11] + 5.555555555555555 Q_bo[12]
   + 5.555555555555555 Q_bo[13] + 5.555555555555555 Q_bo[14]
   + 5.555555555555555 Q_bo[15] + 5.555555555555555 Q_bo[16]
   + 5.555555555555555 Q_bo[17] + 5.555555555555555 Q_bo[18]
   + 5.555555555555555 Q_bo[19] + 5.555555555555555 Q_bo[20]
   + 5.555555555555555 Q_bo[21] + 5.555555555555555 Q_bo[22]
   + 5.555555555555555 Q_bo[23] + 5.555555555555555 Q_bo[24]
   + 5.555555555555555 Q_bo[25] + 5.555555555555555 Q_bo[26]
   + 5.555555555555555 Q_bo[27] + 5.555555555555555 Q_bo[28]
   + 5.555555555555555 Q_bo[29] + 5.555555555555555 Q_bo[30]
   + 5.555555555555555 Q_bo[31] + 5.555555555555555 Q_bo[32]
   + 5.555555555555555 Q_bo[33] + 5.555555555555555 Q_bo[34]
   + 5.555555555555555 Q_bo[35] + 5.555555555555555 Q_bo[36]
   + 5.555555555555555 Q_bo[37] + 5.555555555555555 Q_bo[38]
   + 5.555555555555555 Q_bo[39] + 5.555555555555555 Q_bo[40]
   + 5.555555555555555 Q_bo[41] + 5.555555555555555 Q_bo[42]
   + 5.555555555555555 Q_bo[43] + 5.555555555555555 Q_bo[44]
   + 5.555555555555555 Q_bo[45] + 5.555555555555555 Q_bo[46]
   + 5.555555555555555 Q_bo[47] + 5.555555555555555 Q_bo[48]
Subject To
 init_temp: Tin[0] = 20
 dyn_1: - 5.94648e-05 Q_hp[0] - 5.94648e-05 Q_bo[0]
   - 0.9910802775024777 Tin[0] + Tin[1] = 0.0787016848364717
 dyn_2: - 5.94648e-05 Q_hp[1] - 5.94648e-05 Q_bo[1]
   - 0.9910802775024777 Tin[1] + Tin[2] = 0.0791476709613479
 dyn_3: - 5.94648e-05 Q_hp[2] - 5.94648e-05 Q_bo[2]
   - 0.9910802775024777 Tin[2] + Tin[3] = 0.0764717542120912
 dyn_4: - 5.94648e-05 Q_hp[3] - 5.94648e-05 Q_bo[3]
   - 0.9910802775024777 Tin[3] + Tin[4] = 0.0702279484638256
 dyn_5: - 5.94648e-05 Q_hp[4] - 5.94648e-05 Q_bo[4]
   - 0.9910802775024777 Tin[4] + Tin[5] = 0.0677304261645193
 dyn_6: - 5.94648e-05 Q_hp[5] - 5.94648e-05 Q_bo[5]
   - 0.9910802775024777 Tin[5] + Tin[6] = 0.0695143706640238
 dyn_7: - 5.94648e-05 Q_hp[6] - 5.94648e-05 Q_bo[6]
   - 0.9910802775024777 Tin[6] + Tin[7] = 0.0710901883052527
 dyn_8: - 5.94648e-05 Q_hp[7] - 5.94648e-05 Q_bo[7]
   - 0.9910802775024777 Tin[7] + Tin[8] = 0.0724281466798811
 dyn_9: - 5.94648e-05 Q_hp[8] - 5.94648e-05 Q_bo[8]
   - 0.9910802775024777 Tin[8] + Tin[9] = 0.0729335976214073
 dyn_10: - 5.94648e-05 Q_hp[9] - 5.94648e-05 Q_bo[9]
   - 0.9910802775024777 Tin[9] + Tin[10] = 0.0724876114965312
 dyn_11: - 5.94648e-05 Q_hp[10] - 5.94648e-05 Q_bo[10]
   - 0.9910802775024777 Tin[10] + Tin[11] = 0.0718334985133796
 dyn_12: - 5.94648e-05 Q_hp[11] - 5.94648e-05 Q_bo[11]
   - 0.9910802775024777 Tin[11] + Tin[12] = 0.0709415262636273
 dyn_13: - 5.94648e-05 Q_hp[12] - 5.94648e-05 Q_bo[12]
   - 0.9910802775024777 Tin[12] + Tin[13] = 0.0694251734390486
 dyn_14: - 5.94648e-05 Q_hp[13] - 5.94648e-05 Q_bo[13]
   - 0.9910802775024777 Tin[13] + Tin[14] = 0.067195242814668
 dyn_15: - 5.94648e-05 Q_hp[14] - 5.94648e-05 Q_bo[14]
   - 0.9910802775024777 Tin[14] + Tin[15] = 0.0666303270564916
 dyn_16: - 5.94648e-05 Q_hp[15] - 5.94648e-05 Q_bo[15]
   - 0.9910802775024777 Tin[15] + Tin[16] = 0.0679682854311199
 dyn_17: - 5.94648e-05 Q_hp[16] - 5.94648e-05 Q_bo[16]
   - 0.9910802775024777 Tin[16] + Tin[17] = 0.0682656095143707
 dyn_18: - 5.94648e-05 Q_hp[17] - 5.94648e-05 Q_bo[17]
   - 0.9910802775024777 Tin[17] + Tin[18] = 0.0673736372646184
 dyn_19: - 5.94648e-05 Q_hp[18] - 5.94648e-05 Q_bo[18]
   - 0.9910802775024777 Tin[18] + Tin[19] = 0.0666897918731417
 dyn_20: - 5.94648e-05 Q_hp[19] - 5.94648e-05 Q_bo[19]
   - 0.9910802775024777 Tin[19] + Tin[20] = 0.069217046580773
 dyn_21: - 5.94648e-05 Q_hp[20] - 5.94648e-05 Q_bo[20]
   - 0.9910802775024777 Tin[20] + Tin[21] = 0.0719524281466799
 dyn_22: - 5.94648e-05 Q_hp[21] - 5.94648e-05 Q_bo[21]
   - 0.9910802775024777 Tin[21] + Tin[22] = 0.0743310208126858
 dyn_23: - 5.94648e-05 Q_hp[22] - 5.94648e-05 Q_bo[22]
   - 0.9910802775024777 Tin[22] + Tin[23] = 0.0712983151635282
 dyn_24: - 5.94648e-05 Q_hp[23] - 5.94648e-05 Q_bo[23]
   - 0.9910802775024777 Tin[23] + Tin[24] = 0.0629732408325074
 dyn_25: - 5.94648e-05 Q_hp[24] - 5.94648e-05 Q_bo[24]
   - 0.9910802775024777 Tin[24] + Tin[25] = 0.0590188305252725
 dyn_26: - 5.94648e-05 Q_hp[25] - 5.94648e-05 Q_bo[25]
   - 0.9910802775024777 Tin[25] + Tin[26] = 0.0564915758176412
 dyn_27: - 5.94648e-05 Q_hp[26] - 5.94648e-05 Q_bo[26]
   - 0.9910802775024777 Tin[26] + Tin[27] = 0.0535480673934589
 dyn_28: - 5.94648e-05 Q_hp[27] - 5.94648e-05 Q_bo[27]
   - 0.9910802775024777 Tin[27] + Tin[28] = 0.0536967294350842
 dyn_29: - 5.94648e-05 Q_hp[28] - 5.94648e-05 Q_bo[28]
   - 0.9910802775024777 Tin[28] + Tin[29] = 0.0550941526263627
 dyn_30: - 5.94648e-05 Q_hp[29] - 5.94648e-05 Q_bo[29]
   - 0.9910802775024777 Tin[29] + Tin[30] = 0.0522695738354807
 dyn_31: - 5.94648e-05 Q_hp[30] - 5.94648e-05 Q_bo[30]
   - 0.9910802775024777 Tin[30] + Tin[31] = 0.0494449950445986
 dyn_32: - 5.94648e-05 Q_hp[31] - 5.94648e-05 Q_bo[31]
   - 0.9910802775024777 Tin[31] + Tin[32] = 0.0418632309217047
 dyn_33: - 5.94648e-05 Q_hp[32] - 5.94648e-05 Q_bo[32]
   - 0.9910802775024777 Tin[32] + Tin[33] = 0.0336570862239841
 dyn_34: - 5.94648e-05 Q_hp[33] - 5.94648e-05 Q_bo[33]
   - 0.9910802775024777 Tin[33] + Tin[34] = 0.0297918731417245
 dyn_35: - 5.94648e-05 Q_hp[34] - 5.94648e-05 Q_bo[34]
   - 0.9910802775024777 Tin[34] + Tin[35] = 0.0267591674925669
 dyn_36: - 5.94648e-05 Q_hp[35] - 5.94648e-05 Q_bo[35]
   - 0.9910802775024777 Tin[35] + Tin[36] = 0.0267591674925669
 dyn_37: - 5.94648e-05 Q_hp[36] - 5.94648e-05 Q_bo[36]
   - 0.9910802775024777 Tin[36] + Tin[37] = 0.022388503468781
 dyn_38: - 5.94648e-05 Q_hp[37] - 5.94648e-05 Q_bo[37]
   - 0.9910802775024777 Tin[37] + Tin[38] = 0.0130227948463826
 dyn_39: - 5.94648e-05 Q_hp[38] - 5.94648e-05 Q_bo[38]
   - 0.9910802775024777 Tin[38] + Tin[39] = 0.00657086223984143
 dyn_40: - 5.94648e-05 Q_hp[39] - 5.94648e-05 Q_bo[39]
   - 0.9910802775024777 Tin[39] + Tin[40] = 0.00344895936570862
 dyn_41: - 5.94648e-05 Q_hp[40] - 5.94648e-05 Q_bo[40]
   - 0.9910802775024777 Tin[40] + Tin[41] = 0.0011595639246779
 dyn_42: - 5.94648e-05 Q_hp[41] - 5.94648e-05 Q_bo[41]
   - 0.9910802775024777 Tin[41] + Tin[42] = -1.7839444995044597e-04
 dyn_43: - 5.94648e-05 Q_hp[42] - 5.94648e-05 Q_bo[42]
   - 0.9910802775024777 Tin[42] + Tin[43] = -6.838453914767091e-04
 dyn_44: - 5.94648e-05 Q_hp[43] - 5.94648e-05 Q_bo[43]
   - 0.9910802775024777 Tin[43] + Tin[44] = -2.3785926660059405e-04
 dyn_45: - 5.94648e-05 Q_hp[44] - 5.94648e-05 Q_bo[44]
   - 0.9910802775024777 Tin[44] + Tin[45] = 6.2438057482656103e-04
 dyn_46: - 5.94648e-05 Q_hp[45] - 5.94648e-05 Q_bo[45]
   - 0.9910802775024777 Tin[45] + Tin[46] = 0.00196233894945491
 dyn_47: - 5.94648e-05 Q_hp[46] - 5.94648e-05 Q_bo[46]
   - 0.9910802775024777 Tin[46] + Tin[47] = 0.00246778989098117
 dyn_48: - 5.94648e-05 Q_hp[47] - 5.94648e-05 Q_bo[47]
   - 0.9910802775024777 Tin[47] + Tin[48] = 0.00202180376610505
 tmin_0: Tin[0] >= 19.5
 tmax_0: Tin[0] <= 20.5
 tmin_1: Tin[1] >= 19.5
 tmax_1: Tin[1] <= 20.5
 tmin_2: Tin[2] >= 19.5
 tmax_2: Tin[2] <= 20.5
 tmin_3: Tin[3] >= 19.5
 tmax_3: Tin[3] <= 20.5
 tmin_4: Tin[4] >= 19.5
 tmax_4: Tin[4] <= 20.5
 tmin_5: Tin[5] >= 19.5
 tmax_5: Tin[5] <= 20.5
 tmin_6: Tin[6] >= 19.5
 tmax_6: Tin[6] <= 20.5
 tmin_7: Tin[7] >= 19.5
 tmax_7: Tin[7] <= 20.5
 tmin_8: Tin[8] >= 19.5
 tmax_8: Tin[8] <= 20.5
 tmin_9: Tin[9] >= 19.5
 tmax_9: Tin[9] <= 20.5
 tmin_10: Tin[10] >= 19.5
 tmax_10: Tin[10] <= 20.5
 tmin_11: Tin[11] >= 19.5
 tmax_11: Tin[11] <= 20.5
 tmin_12: Tin[12] >= 21.5
 tmax_12: Tin[12] <= 22.5
 tmin_13: Tin[13] >= 21.5
 tmax_13: Tin[13] <= 22.5
 tmin_14: Tin[14] >= 21.5
 tmax_14: Tin[14] <= 22.5
 tmin_15: Tin[15] >= 21.5
 tmax_15: Tin[15] <= 22.5
 tmin_16: Tin[16] >= 21.5
 tmax_16: Tin[16] <= 22.5
 tmin_17: Tin[17] >= 21.5
 tmax_17: Tin[17] <= 22.5
 tmin_18: Tin[18] >= 21.5
 tmax_18: Tin[18] <= 22.5
 tmin_19: Tin[19] >= 21.5
 tmax_19: Tin[19] <= 22.5
 tmin_20: Tin[20] >= 21.5
 tmax_20: Tin[20] <= 22.5
 tmin_21: Tin[21] >= 21.5
 tmax_21: Tin[21] <= 22.5
 tmin_22: Tin[22] >= 21.5
 tmax_22: Tin[22] <= 22.5
 tmin_23: Tin[23] >= 21.5
 tmax_23: Tin[23] <= 22.5
 tmin_24: Tin[24] >= 21.5
 tmax_24: Tin[24] <= 22.5
 tmin_25: Tin[25] >= 21.5
 tmax_25: Tin[25] <= 22.5
 tmin_26: Tin[26] >= 21.5
 tmax_26: Tin[26] <= 22.5
 tmin_27: Tin[27] >= 21.5
 tmax_27: Tin[27] <= 22.5
 tmin_28: Tin[28] >= 21.5
 tmax_28: Tin[28] <= 22.5
 tmin_29: Tin[29] >= 21.5
 tmax_29: Tin[29] <= 22.5
 tmin_30: Tin[30] >= 21.5
 tmax_30: Tin[30] <= 22.5
 tmin_31: Tin[31] >= 21.5
 tmax_31: Tin[31] <= 22.5
 tmin_32: Tin[32] >= 21.5
 tmax_32: Tin[32] <= 22.5
 tmin_33: Tin[33] >= 21.5
 tmax_33: Tin[33] <= 22.5
 tmin_34: Tin[34] >= 21.5
 tmax_34: Tin[34] <= 22.5
 tmin_35: Tin[35] >= 21.5
 tmax_35: Tin[35] <= 22.5
 tmin_36: Tin[36] >= 21.5
 tmax_36: Tin[36] <= 22.5
 tmin_37: Tin[37] >= 21.5
 tmax_37: Tin[37] <= 22.5
 tmin_38: Tin[38] >= 21.5
 tmax_38: Tin[38] <= 22.5
 tmin_39: Tin[39] >= 21.5
 tmax_39: Tin[39] <= 22.5
 tmin_40: Tin[40] >= 21.5
 tmax_40: Tin[40] <= 22.5
 tmin_41: Tin[41] >= 21.5
 tmax_41: Tin[41] <= 22.5
 tmin_42: Tin[42] >= 21.5
 tmax_42: Tin[42] <= 22.5
 tmin_43: Tin[43] >= 21.5
 tmax_43: Tin[43] <= 22.5
 tmin_44: Tin[44] >= 19.5
 tmax_44: Tin[44] <= 20.5
 tmin_45: Tin[45] >= 19.5
 tmax_45: Tin[45] <= 20.5
 tmin_46: Tin[46] >= 19.5
 tmax_46: Tin[46] <= 20.5
 tmin_47: Tin[47] >= 19.5
 tmax_47: Tin[47] <= 20.5
 tmin_48: Tin[48] >= 19.5
 tmax_48: Tin[48] <= 20.5
Bounds
 Q_hp[0] <= 4000
 Q_hp[1] <= 4000
 Q_hp[2] <= 4000
 Q_hp[3] <= 4000
 Q_hp[4] <= 4000
 Q_hp[5] <= 4000
 Q_hp[6] <= 4000
 Q_hp[7] <= 4000
 Q_hp[8] <= 4000
 Q_hp[9] <= 4000
 Q_hp[10] <= 4000
 Q_hp[11] <= 4000
 Q_hp[12] <= 4000
 Q_hp[13] <= 4000
 Q_hp[14] <= 4000
 Q_hp[15] <= 4000
 Q_hp[16] <= 4000
 Q_hp[17] <= 4000
 Q_hp[18] <= 4000
 Q_hp[19] <= 4000
 Q_hp[20] <= 4000
 Q_hp[21] <= 4000
 Q_hp[22] <= 4000
 Q_hp[23] <= 4000
 Q_hp[24] <= 4000
 Q_hp[25] <= 4000
 Q_hp[26] <= 4000
 Q_hp[27] <= 4000
 Q_hp[28] <= 4000
 Q_hp[29] <= 4000
 Q_hp[30] <= 4000
 Q_hp[31] <= 4000
 Q_hp[32] <= 4000
 Q_hp[33] <= 4000
 Q_hp[34] <= 4000
 Q_hp[35] <= 4000
 Q_hp[36] <= 4000
 Q_hp[37] <= 4000
 Q_hp[38] <= 4000
 Q_hp[39] <= 4000
 Q_hp[40] <= 4000
 Q_hp[41] <= 4000
 Q_hp[42] <= 4000
 Q_hp[43] <= 4000
 Q_hp[44] <= 4000
 Q_hp[45] <= 4000
 Q_hp[46] <= 4000
 Q_hp[47] <= 4000
 Q_hp[48] <= 4000
 Q_bo[0] <= 20000
 Q_bo[1] <= 20000
 Q_bo[2] <= 20000
 Q_bo[3] <= 20000
 Q_bo[4] <= 20000
 Q_bo[5] <= 20000
 Q_bo[6] <= 20000
 Q_bo[7] <= 20000
 Q_bo[8] <= 20000
 Q_bo[9] <= 20000
 Q_bo[10] <= 20000
 Q_bo[11] <= 20000
 Q_bo[12] <= 20000
 Q_bo[13] <= 20000
 Q_bo[14] <= 20000
 Q_bo[15] <= 20000
 Q_bo[16] <= 20000
 Q_bo[17] <= 20000
 Q_bo[18] <= 20000
 Q_bo[19] <= 20000
 Q_bo[20] <= 20000
 Q_bo[21] <= 20000
 Q_bo[22] <= 20000
 Q_bo[23] <= 20000
 Q_bo[24] <= 20000
 Q_bo[25] <= 20000
 Q_bo[26] <= 20000
 Q_bo[27] <= 20000
 Q_bo[28] <= 20000
 Q_bo[29] <= 20000
 Q_bo[30] <= 20000
 Q_bo[31] <= 20000
 Q_bo[32] <= 20000
 Q_bo[33] <= 20000
 Q_bo[34] <= 20000
 Q_bo[35] <= 20000
 Q_bo[36] <= 20000
 Q_bo[37] <= 20000
 Q_bo[38] <= 20000
 Q_bo[39] <= 20000
 Q_bo[40] <= 20000
 Q_bo[41] <= 20000
 Q_bo[42] <= 20000
 Q_bo[43] <= 20000
 Q_bo[44] <= 20000
 Q_bo[45] <= 20000
 Q_bo[46] <= 20000
 Q_bo[47] <= 20000
 Q_bo[48] <= 20000
 Tin[0] free
 Tin[1] free
 Tin[2] free
 Tin[3] free
 Tin[4] free
 Tin[5] free
 Tin[6] free
 Tin[7] free
 Tin[8] free
 Tin[9] free
 Tin[10] free
 Tin[11] free
 Tin[12] free
 Tin[13] free
 Tin[14] free
 Tin[15] free
 Tin[16] free
 Tin[17] free
 Tin[18] free
 Tin[19] free
 Tin[20] free
 Tin[21] free
 Tin[22] free
 Tin[23] free
 Tin[24] free
 Tin[25] free
 Tin[26] free
 Tin[27] free
 Tin[28] free
 Tin[29] free
 Tin[30] free
 Tin[31] free
 Tin[32] free
 Tin[33] free
 Tin[34] free
 Tin[35] free
 Tin[36] free
 Tin[37] free
 Tin[38] free
 Tin[39] free
 Tin[40] free
 Tin[41] free
 Tin[42] free
 Tin[43] free
 Tin[44] free
 Tin[45] free
 Tin[46] free
 Tin[47] free
 Tin[48] free
End
